100
128
26
55
64
51
53
5
13
56
28
12
19
52
51
18
17
1
34
31
31
47
63
24
2
62
28
15
3
2
18
12
18
16
45
57
21
23
1
3
33
3
48
11
45
47
24
12
33
41
25
58
49
44
3
46
60
12
43
33
17
22
50
64
20
48
54
16
35
21
25
18
26
29
15
34
43
51
22
42
21
46
30
18
19
16
2
63
38
53
39
19
52
61
19
62
33
8
18
12
1
1